! Solving for graph /home/truongxuanhieu/CPLEX-CP-for-MinSpanLabeling/benchmarks/abp/Q-494_bus.mtx.rnd
! Target value is set to 283
! Lower bound is set to 284
! Upper bound is set to 618
! Time limit is set to 1800
! Vertices mode is set to Has hole
! Target value mode is set to Antibandwidth
 ! --------------------------------------------------- CP Optimizer 22.2.0.0 --
 ! Minimization problem - 495 variables, 589 constraints, 1 phase
 ! TimeLimit            = 1800
 ! LogVerbosity         = Terse
 ! Initial process time : 0.00s (0.00s extraction + 0.00s propagation)
 !  . Log search space  : 4580.5 (before), 4580.5 (after)
 !  . Memory usage      : 711.4 kB (before), 711.4 kB (after)
 ! Using parallel search with 8 workers.
 ! ----------------------------------------------------------------------------
 !          Best Branches  Non-fixed    W       Branch decision
                        0        495                 -
 + New bound is 284
                        2        494    1   F     1 != _int58
 + New bound is 285
 *           567      481  0.09s        1      (gap is 49.74%)
             567     3248        105    1            -
 + New bound is 567 (gap is 0.00%)
 ! ----------------------------------------------------------------------------
 ! Search completed, 1 solution found.
 ! Best objective         : 567 (optimal - effective tol. is 0)
 ! Best bound             : 567
 ! ----------------------------------------------------------------------------
 ! Number of branches     : 28684
 ! Number of fails        : 7079
 ! Total memory usage     : 38.8 MB (38.5 MB CP Optimizer + 0.3 MB Concert)
 ! Time spent in solve    : 0.17s (0.17s engine + 0.00s extraction)
 ! Search speed (br. / s) : 179275.0
 ! ----------------------------------------------------------------------------
! --------------------------------------------------------
! Best span = 567
! Labeling: 567 1 1 284 1 1 1 1 1 1 1 284 1 284 1 1 284 1 284 1 284 284 1 284 567 284 567 1 284 1 284 1 284 284 284 1 1 1 284 1 1 284 284 284 284 284 284 1 1 1 1 284 284 1 284 567 284 1 284 284 1 284 1 1 284 284 1 1 1 284 1 284 284 1 284 1 1 1 284 284 284 284 1 1 284 1 284 284 567 284 284 1 284 567 1 1 1 284 284 1 284 1 284 1 567 1 284 1 1 1 1 1 284 284 567 1 284 284 1 1 284 284 1 284 284 1 284 1 284 1 284 284 1 1 284 284 1 1 284 284 1 1 1 1 1 1 284 1 1 284 284 1 1 1 284 284 284 284 1 284 284 1 567 1 567 1 284 1 284 1 1 284 1 284 1 284 284 1 1 567 284 284 284 284 284 284 284 1 284 284 284 1 284 284 1 1 284 1 1 284 567 284 1 284 1 1 284 1 1 284 284 567 1 1 284 284 284 284 1 1 284 284 1 284 284 284 284 284 284 1 284 1 284 567 1 284 284 284 284 1 284 1 284 284 284 1 284 284 1 284 284 284 1 284 1 1 1 284 1 284 1 284 1 1 1 1 1 1 1 1 1 1 284 284 567 284 1 1 1 284 284 284 284 1 284 1 1 1 1 1 284 284 1 284 1 1 284 1 1 1 1 1 1 1 284 284 1 284 1 284 567 1 1 1 1 567 1 284 1 1 284 567 1 284 1 284 1 1 1 1 284 284 1 1 1 1 284 284 1 1 1 284 1 1 284 1 1 1 284 284 284 284 284 284 284 567 284 1 1 1 567 1 1 1 1 1 284 1 284 284 1 1 567 567 1 1 284 284 1 284 284 1 1 284 284 284 1 284 1 1 284 284 284 1 284 1 284 284 284 284 1 284 567 1 284 284 284 1 567 1 284 284 284 284 1 284 567 1 1 1 284 284 284 284 284 284 1 1 1 1 1 567 1 567 284 284 284 284 284 284 284 1 284 1 284 284 284 1 284 1 1 1 1 284 284 1 1 567 1 284 1 1 284 284 567 567 1 1 284 284 1 284 1 1 1 284 284 567 1 1 284 284 1 284 1 284 1 284 1 1 1 284 1 284 
! -------------------------------------------------------- 
